Maximize
 obj: X359
Subject To
 -X0 >= -1
 X0 >= 0
 -X1 >= -45070080
 X1 >= 0
 -X2 >= -1
 X2 >= 0
 X2 - X0 >= 0
 -X2 + X5 >= 0
 -X2 + X4 >= 0
 -X3 >= -1
 X3 >= 0
 X3 - X9 >= 0
 -X3 + X8 >= 0
 -X3 + X7 >= 0
 X3 - X6 = 0
 -X4 >= -1
 X4 >= 0
 -X4 - X5 + X2 >= -1
 45070082 X4 - X365 + X1 >= 1
 -45070082 X4 + X365 - X1 >= -45070082
 -X5 >= -1
 X5 >= 0
 45070082 X5 + X365 - X1 >= 1
 -45070082 X5 - X365 + X1 >= -45070082
 -X6 >= -1
 X6 >= 0
 -X7 >= -1
 X7 >= 0
 -X7 - X8 + X3 >= -1
 45070082 X7 - X1 >= 1
 -2 X7 + X1 >= -2
 -X8 >= -1
 X8 >= 0
 2 X8 + X1 >= 1
 -45070082 X8 - X1 >= -45070082
 -X9 >= -1
 X9 >= 0
 -X9 + X12 >= 0
 -X9 + X11 >= 0
 X9 - X10 = 0
 -X10 >= -1
 X10 >= 0
 -X11 >= -1
 X11 >= 0
 -X11 - X12 + X9 >= -1
 3 X11 - X0 >= 1
 -2 X11 + X0 >= -2
 -X12 >= -1
 X12 >= 0
 2 X12 + X0 >= 1
 -3 X12 - X0 >= -3
 -X13 >= -1
 X13 >= 0
 -X14 >= -45070080
 X14 >= 0
 -X15 >= -1
 X15 >= 0
 X15 - X13 >= 0
 -X15 + X18 >= 0
 -X15 + X17 >= 0
 -X16 >= -1
 X16 >= 0
 X16 - X22 >= 0
 -X16 + X21 >= 0
 -X16 + X20 >= 0
 X16 - X19 = 0
 -X17 >= -1
 X17 >= 0
 -X17 - X18 + X15 >= -1
 45070082 X17 - X365 + X14 >= 1
 -45070082 X17 + X365 - X14 >= -45070082
 -X18 >= -1
 X18 >= 0
 45070082 X18 + X365 - X14 >= 1
 -45070082 X18 - X365 + X14 >= -45070082
 -X19 >= -1
 X19 >= 0
 -X20 >= -1
 X20 >= 0
 -X20 - X21 + X16 >= -1
 45070082 X20 - X14 >= 1
 -2 X20 + X14 >= -2
 -X21 >= -1
 X21 >= 0
 2 X21 + X14 >= 1
 -45070082 X21 - X14 >= -45070082
 -X22 >= -1
 X22 >= 0
 -X22 + X25 >= 0
 -X22 + X24 >= 0
 X22 - X23 = 0
 -X23 >= -1
 X23 >= 0
 -X24 >= -1
 X24 >= 0
 -X24 - X25 + X22 >= -1
 3 X24 - X13 >= 1
 -2 X24 + X13 >= -2
 -X25 >= -1
 X25 >= 0
 2 X25 + X13 >= 1
 -3 X25 - X13 >= -3
 -X26 >= -1
 X26 >= 0
 -X27 >= -45070080
 X27 >= 0
 -X28 >= -1
 X28 >= 0
 X28 - X26 >= 0
 -X28 + X31 >= 0
 -X28 + X30 >= 0
 -X29 >= -1
 X29 >= 0
 X29 - X35 >= 0
 -X29 + X34 >= 0
 -X29 + X33 >= 0
 X29 - X32 = 0
 -X30 >= -1
 X30 >= 0
 -X30 - X31 + X28 >= -1
 45070082 X30 - X365 + X27 >= 1
 -45070082 X30 + X365 - X27 >= -45070082
 -X31 >= -1
 X31 >= 0
 45070082 X31 + X365 - X27 >= 1
 -45070082 X31 - X365 + X27 >= -45070082
 -X32 >= -1
 X32 >= 0
 -X33 >= -1
 X33 >= 0
 -X33 - X34 + X29 >= -1
 45070082 X33 - X27 >= 1
 -2 X33 + X27 >= -2
 -X34 >= -1
 X34 >= 0
 2 X34 + X27 >= 1
 -45070082 X34 - X27 >= -45070082
 -X35 >= -1
 X35 >= 0
 -X35 + X38 >= 0
 -X35 + X37 >= 0
 X35 - X36 = 0
 -X36 >= -1
 X36 >= 0
 -X37 >= -1
 X37 >= 0
 -X37 - X38 + X35 >= -1
 3 X37 - X26 >= 1
 -2 X37 + X26 >= -2
 -X38 >= -1
 X38 >= 0
 2 X38 + X26 >= 1
 -3 X38 - X26 >= -3
 -X39 >= -1
 X39 >= 0
 -X40 >= -45070080
 X40 >= 0
 -X41 >= -1
 X41 >= 0
 X41 - X39 >= 0
 -X41 + X44 >= 0
 -X41 + X43 >= 0
 -X42 >= -1
 X42 >= 0
 X42 - X48 >= 0
 -X42 + X47 >= 0
 -X42 + X46 >= 0
 X42 - X45 = 0
 -X43 >= -1
 X43 >= 0
 -X43 - X44 + X41 >= -1
 45070082 X43 - X365 + X40 >= 1
 -45070082 X43 + X365 - X40 >= -45070082
 -X44 >= -1
 X44 >= 0
 45070082 X44 + X365 - X40 >= 1
 -45070082 X44 - X365 + X40 >= -45070082
 -X45 >= -1
 X45 >= 0
 -X46 >= -1
 X46 >= 0
 -X46 - X47 + X42 >= -1
 45070082 X46 - X40 >= 1
 -2 X46 + X40 >= -2
 -X47 >= -1
 X47 >= 0
 2 X47 + X40 >= 1
 -45070082 X47 - X40 >= -45070082
 -X48 >= -1
 X48 >= 0
 -X48 + X51 >= 0
 -X48 + X50 >= 0
 X48 - X49 = 0
 -X49 >= -1
 X49 >= 0
 -X50 >= -1
 X50 >= 0
 -X50 - X51 + X48 >= -1
 3 X50 - X39 >= 1
 -2 X50 + X39 >= -2
 -X51 >= -1
 X51 >= 0
 2 X51 + X39 >= 1
 -3 X51 - X39 >= -3
 -X52 >= -1
 X52 >= 0
 -X53 >= -45070080
 X53 >= 0
 -X54 >= -1
 X54 >= 0
 X54 - X52 >= 0
 -X54 + X57 >= 0
 -X54 + X56 >= 0
 -X55 >= -1
 X55 >= 0
 X55 - X61 >= 0
 -X55 + X60 >= 0
 -X55 + X59 >= 0
 X55 - X58 = 0
 -X56 >= -1
 X56 >= 0
 -X56 - X57 + X54 >= -1
 45070082 X56 - X365 + X53 >= 1
 -45070082 X56 + X365 - X53 >= -45070082
 -X57 >= -1
 X57 >= 0
 45070082 X57 + X365 - X53 >= 1
 -45070082 X57 - X365 + X53 >= -45070082
 -X58 >= -1
 X58 >= 0
 -X59 >= -1
 X59 >= 0
 -X59 - X60 + X55 >= -1
 45070082 X59 - X53 >= 1
 -2 X59 + X53 >= -2
 -X60 >= -1
 X60 >= 0
 2 X60 + X53 >= 1
 -45070082 X60 - X53 >= -45070082
 -X61 >= -1
 X61 >= 0
 -X61 + X64 >= 0
 -X61 + X63 >= 0
 X61 - X62 = 0
 -X62 >= -1
 X62 >= 0
 -X63 >= -1
 X63 >= 0
 -X63 - X64 + X61 >= -1
 3 X63 - X52 >= 1
 -2 X63 + X52 >= -2
 -X64 >= -1
 X64 >= 0
 2 X64 + X52 >= 1
 -3 X64 - X52 >= -3
 -X65 >= -1
 X65 >= 0
 -X66 >= -45070080
 X66 >= 0
 -X67 >= -1
 X67 >= 0
 X67 - X65 >= 0
 -X67 + X70 >= 0
 -X67 + X69 >= 0
 -X68 >= -1
 X68 >= 0
 X68 - X74 >= 0
 -X68 + X73 >= 0
 -X68 + X72 >= 0
 X68 - X71 = 0
 -X69 >= -1
 X69 >= 0
 -X69 - X70 + X67 >= -1
 45070082 X69 - X365 + X66 >= 1
 -45070082 X69 + X365 - X66 >= -45070082
 -X70 >= -1
 X70 >= 0
 45070082 X70 + X365 - X66 >= 1
 -45070082 X70 - X365 + X66 >= -45070082
 -X71 >= -1
 X71 >= 0
 -X72 >= -1
 X72 >= 0
 -X72 - X73 + X68 >= -1
 45070082 X72 - X66 >= 1
 -2 X72 + X66 >= -2
 -X73 >= -1
 X73 >= 0
 2 X73 + X66 >= 1
 -45070082 X73 - X66 >= -45070082
 -X74 >= -1
 X74 >= 0
 -X74 + X77 >= 0
 -X74 + X76 >= 0
 X74 - X75 = 0
 -X75 >= -1
 X75 >= 0
 -X76 >= -1
 X76 >= 0
 -X76 - X77 + X74 >= -1
 3 X76 - X65 >= 1
 -2 X76 + X65 >= -2
 -X77 >= -1
 X77 >= 0
 2 X77 + X65 >= 1
 -3 X77 - X65 >= -3
 -X78 >= -1
 X78 >= 0
 -X79 >= -45070080
 X79 >= 0
 -X80 >= -1
 X80 >= 0
 X80 - X78 >= 0
 -X80 + X83 >= 0
 -X80 + X82 >= 0
 -X81 >= -1
 X81 >= 0
 X81 - X87 >= 0
 -X81 + X86 >= 0
 -X81 + X85 >= 0
 X81 - X84 = 0
 -X82 >= -1
 X82 >= 0
 -X82 - X83 + X80 >= -1
 45070082 X82 - X365 + X79 >= 1
 -45070082 X82 + X365 - X79 >= -45070082
 -X83 >= -1
 X83 >= 0
 45070082 X83 + X365 - X79 >= 1
 -45070082 X83 - X365 + X79 >= -45070082
 -X84 >= -1
 X84 >= 0
 -X85 >= -1
 X85 >= 0
 -X85 - X86 + X81 >= -1
 45070082 X85 - X79 >= 1
 -2 X85 + X79 >= -2
 -X86 >= -1
 X86 >= 0
 2 X86 + X79 >= 1
 -45070082 X86 - X79 >= -45070082
 -X87 >= -1
 X87 >= 0
 -X87 + X90 >= 0
 -X87 + X89 >= 0
 X87 - X88 = 0
 -X88 >= -1
 X88 >= 0
 -X89 >= -1
 X89 >= 0
 -X89 - X90 + X87 >= -1
 3 X89 - X78 >= 1
 -2 X89 + X78 >= -2
 -X90 >= -1
 X90 >= 0
 2 X90 + X78 >= 1
 -3 X90 - X78 >= -3
 -X91 >= -1
 X91 >= 0
 -X92 >= -45070080
 X92 >= 0
 -X93 >= -1
 X93 >= 0
 X93 - X91 >= 0
 -X93 + X96 >= 0
 -X93 + X95 >= 0
 -X94 >= -1
 X94 >= 0
 X94 - X100 >= 0
 -X94 + X99 >= 0
 -X94 + X98 >= 0
 X94 - X97 = 0
 -X95 >= -1
 X95 >= 0
 -X95 - X96 + X93 >= -1
 45070082 X95 - X365 + X92 >= 1
 -45070082 X95 + X365 - X92 >= -45070082
 -X96 >= -1
 X96 >= 0
 45070082 X96 + X365 - X92 >= 1
 -45070082 X96 - X365 + X92 >= -45070082
 -X97 >= -1
 X97 >= 0
 -X98 >= -1
 X98 >= 0
 -X98 - X99 + X94 >= -1
 45070082 X98 - X92 >= 1
 -2 X98 + X92 >= -2
 -X99 >= -1
 X99 >= 0
 2 X99 + X92 >= 1
 -45070082 X99 - X92 >= -45070082
 -X100 >= -1
 X100 >= 0
 -X100 + X103 >= 0
 -X100 + X102 >= 0
 X100 - X101 = 0
 -X101 >= -1
 X101 >= 0
 -X102 >= -1
 X102 >= 0
 -X102 - X103 + X100 >= -1
 3 X102 - X91 >= 1
 -2 X102 + X91 >= -2
 -X103 >= -1
 X103 >= 0
 2 X103 + X91 >= 1
 -3 X103 - X91 >= -3
 -X104 >= -1
 X104 >= 0
 -X105 >= -45070080
 X105 >= 0
 -X106 >= -1
 X106 >= 0
 X106 - X104 >= 0
 -X106 + X109 >= 0
 -X106 + X108 >= 0
 -X107 >= -1
 X107 >= 0
 X107 - X113 >= 0
 -X107 + X112 >= 0
 -X107 + X111 >= 0
 X107 - X110 = 0
 -X108 >= -1
 X108 >= 0
 -X108 - X109 + X106 >= -1
 45070082 X108 - X365 + X105 >= 1
 -45070082 X108 + X365 - X105 >= -45070082
 -X109 >= -1
 X109 >= 0
 45070082 X109 + X365 - X105 >= 1
 -45070082 X109 - X365 + X105 >= -45070082
 -X110 >= -1
 X110 >= 0
 -X111 >= -1
 X111 >= 0
 -X111 - X112 + X107 >= -1
 45070082 X111 - X105 >= 1
 -2 X111 + X105 >= -2
 -X112 >= -1
 X112 >= 0
 2 X112 + X105 >= 1
 -45070082 X112 - X105 >= -45070082
 -X113 >= -1
 X113 >= 0
 -X113 + X116 >= 0
 -X113 + X115 >= 0
 X113 - X114 = 0
 -X114 >= -1
 X114 >= 0
 -X115 >= -1
 X115 >= 0
 -X115 - X116 + X113 >= -1
 3 X115 - X104 >= 1
 -2 X115 + X104 >= -2
 -X116 >= -1
 X116 >= 0
 2 X116 + X104 >= 1
 -3 X116 - X104 >= -3
 -X117 >= -1
 X117 >= 0
 -X118 >= -93896
 X118 >= 0
 -X119 >= -1
 X119 >= 0
 X119 - X117 >= 0
 -X119 + X122 >= 0
 -X119 + X121 >= 0
 -X120 >= -1
 X120 >= 0
 X120 - X126 >= 0
 -X120 + X125 >= 0
 -X120 + X124 >= 0
 X120 - X123 = 0
 -X121 >= -1
 X121 >= 0
 -X121 - X122 + X119 >= -1
 93898 X121 - X369 + X118 >= 1
 -93898 X121 + X369 - X118 >= -93898
 -X122 >= -1
 X122 >= 0
 93898 X122 + X369 - X118 >= 1
 -93898 X122 - X369 + X118 >= -93898
 -X123 >= -1
 X123 >= 0
 -X124 >= -1
 X124 >= 0
 -X124 - X125 + X120 >= -1
 93898 X124 - X118 >= 1
 -2 X124 + X118 >= -2
 -X125 >= -1
 X125 >= 0
 2 X125 + X118 >= 1
 -93898 X125 - X118 >= -93898
 -X126 >= -1
 X126 >= 0
 -X126 + X129 >= 0
 -X126 + X128 >= 0
 X126 - X127 = 0
 -X127 >= -1
 X127 >= 0
 -X128 >= -1
 X128 >= 0
 -X128 - X129 + X126 >= -1
 3 X128 - X117 >= 1
 -2 X128 + X117 >= -2
 -X129 >= -1
 X129 >= 0
 2 X129 + X117 >= 1
 -3 X129 - X117 >= -3
 -X130 >= -1
 X130 >= 0
 -X131 >= -93896
 X131 >= 0
 -X132 >= -1
 X132 >= 0
 X132 - X130 >= 0
 -X132 + X135 >= 0
 -X132 + X134 >= 0
 -X133 >= -1
 X133 >= 0
 X133 - X139 >= 0
 -X133 + X138 >= 0
 -X133 + X137 >= 0
 X133 - X136 = 0
 -X134 >= -1
 X134 >= 0
 -X134 - X135 + X132 >= -1
 93898 X134 - X369 + X131 >= 1
 -93898 X134 + X369 - X131 >= -93898
 -X135 >= -1
 X135 >= 0
 93898 X135 + X369 - X131 >= 1
 -93898 X135 - X369 + X131 >= -93898
 -X136 >= -1
 X136 >= 0
 -X137 >= -1
 X137 >= 0
 -X137 - X138 + X133 >= -1
 93898 X137 - X131 >= 1
 -2 X137 + X131 >= -2
 -X138 >= -1
 X138 >= 0
 2 X138 + X131 >= 1
 -93898 X138 - X131 >= -93898
 -X139 >= -1
 X139 >= 0
 -X139 + X142 >= 0
 -X139 + X141 >= 0
 X139 - X140 = 0
 -X140 >= -1
 X140 >= 0
 -X141 >= -1
 X141 >= 0
 -X141 - X142 + X139 >= -1
 3 X141 - X130 >= 1
 -2 X141 + X130 >= -2
 -X142 >= -1
 X142 >= 0
 2 X142 + X130 >= 1
 -3 X142 - X130 >= -3
 -X143 >= -1
 X143 >= 0
 -X144 >= -93896
 X144 >= 0
 -X145 >= -1
 X145 >= 0
 X145 - X143 >= 0
 -X145 + X148 >= 0
 -X145 + X147 >= 0
 -X146 >= -1
 X146 >= 0
 X146 - X152 >= 0
 -X146 + X151 >= 0
 -X146 + X150 >= 0
 X146 - X149 = 0
 -X147 >= -1
 X147 >= 0
 -X147 - X148 + X145 >= -1
 93898 X147 - X369 + X144 >= 1
 -93898 X147 + X369 - X144 >= -93898
 -X148 >= -1
 X148 >= 0
 93898 X148 + X369 - X144 >= 1
 -93898 X148 - X369 + X144 >= -93898
 -X149 >= -1
 X149 >= 0
 -X150 >= -1
 X150 >= 0
 -X150 - X151 + X146 >= -1
 93898 X150 - X144 >= 1
 -2 X150 + X144 >= -2
 -X151 >= -1
 X151 >= 0
 2 X151 + X144 >= 1
 -93898 X151 - X144 >= -93898
 -X152 >= -1
 X152 >= 0
 -X152 + X155 >= 0
 -X152 + X154 >= 0
 X152 - X153 = 0
 -X153 >= -1
 X153 >= 0
 -X154 >= -1
 X154 >= 0
 -X154 - X155 + X152 >= -1
 3 X154 - X143 >= 1
 -2 X154 + X143 >= -2
 -X155 >= -1
 X155 >= 0
 2 X155 + X143 >= 1
 -3 X155 - X143 >= -3
 -X156 >= -1
 X156 >= 0
 -X157 >= -93896
 X157 >= 0
 -X158 >= -1
 X158 >= 0
 X158 - X156 >= 0
 -X158 + X161 >= 0
 -X158 + X160 >= 0
 -X159 >= -1
 X159 >= 0
 X159 - X165 >= 0
 -X159 + X164 >= 0
 -X159 + X163 >= 0
 X159 - X162 = 0
 -X160 >= -1
 X160 >= 0
 -X160 - X161 + X158 >= -1
 93898 X160 - X369 + X157 >= 1
 -93898 X160 + X369 - X157 >= -93898
 -X161 >= -1
 X161 >= 0
 93898 X161 + X369 - X157 >= 1
 -93898 X161 - X369 + X157 >= -93898
 -X162 >= -1
 X162 >= 0
 -X163 >= -1
 X163 >= 0
 -X163 - X164 + X159 >= -1
 93898 X163 - X157 >= 1
 -2 X163 + X157 >= -2
 -X164 >= -1
 X164 >= 0
 2 X164 + X157 >= 1
 -93898 X164 - X157 >= -93898
 -X165 >= -1
 X165 >= 0
 -X165 + X168 >= 0
 -X165 + X167 >= 0
 X165 - X166 = 0
 -X166 >= -1
 X166 >= 0
 -X167 >= -1
 X167 >= 0
 -X167 - X168 + X165 >= -1
 3 X167 - X156 >= 1
 -2 X167 + X156 >= -2
 -X168 >= -1
 X168 >= 0
 2 X168 + X156 >= 1
 -3 X168 - X156 >= -3
 -X169 >= -1
 X169 >= 0
 -X170 >= -93896
 X170 >= 0
 -X171 >= -1
 X171 >= 0
 X171 - X169 >= 0
 -X171 + X174 >= 0
 -X171 + X173 >= 0
 -X172 >= -1
 X172 >= 0
 X172 - X178 >= 0
 -X172 + X177 >= 0
 -X172 + X176 >= 0
 X172 - X175 = 0
 -X173 >= -1
 X173 >= 0
 -X173 - X174 + X171 >= -1
 93898 X173 - X369 + X170 >= 1
 -93898 X173 + X369 - X170 >= -93898
 -X174 >= -1
 X174 >= 0
 93898 X174 + X369 - X170 >= 1
 -93898 X174 - X369 + X170 >= -93898
 -X175 >= -1
 X175 >= 0
 -X176 >= -1
 X176 >= 0
 -X176 - X177 + X172 >= -1
 93898 X176 - X170 >= 1
 -2 X176 + X170 >= -2
 -X177 >= -1
 X177 >= 0
 2 X177 + X170 >= 1
 -93898 X177 - X170 >= -93898
 -X178 >= -1
 X178 >= 0
 -X178 + X181 >= 0
 -X178 + X180 >= 0
 X178 - X179 = 0
 -X179 >= -1
 X179 >= 0
 -X180 >= -1
 X180 >= 0
 -X180 - X181 + X178 >= -1
 3 X180 - X169 >= 1
 -2 X180 + X169 >= -2
 -X181 >= -1
 X181 >= 0
 2 X181 + X169 >= 1
 -3 X181 - X169 >= -3
 -X182 >= -1
 X182 >= 0
 -X183 >= -93896
 X183 >= 0
 -X184 >= -1
 X184 >= 0
 X184 - X182 >= 0
 -X184 + X187 >= 0
 -X184 + X186 >= 0
 -X185 >= -1
 X185 >= 0
 X185 - X191 >= 0
 -X185 + X190 >= 0
 -X185 + X189 >= 0
 X185 - X188 = 0
 -X186 >= -1
 X186 >= 0
 -X186 - X187 + X184 >= -1
 93898 X186 - X369 + X183 >= 1
 -93898 X186 + X369 - X183 >= -93898
 -X187 >= -1
 X187 >= 0
 93898 X187 + X369 - X183 >= 1
 -93898 X187 - X369 + X183 >= -93898
 -X188 >= -1
 X188 >= 0
 -X189 >= -1
 X189 >= 0
 -X189 - X190 + X185 >= -1
 93898 X189 - X183 >= 1
 -2 X189 + X183 >= -2
 -X190 >= -1
 X190 >= 0
 2 X190 + X183 >= 1
 -93898 X190 - X183 >= -93898
 -X191 >= -1
 X191 >= 0
 -X191 + X194 >= 0
 -X191 + X193 >= 0
 X191 - X192 = 0
 -X192 >= -1
 X192 >= 0
 -X193 >= -1
 X193 >= 0
 -X193 - X194 + X191 >= -1
 3 X193 - X182 >= 1
 -2 X193 + X182 >= -2
 -X194 >= -1
 X194 >= 0
 2 X194 + X182 >= 1
 -3 X194 - X182 >= -3
 -X195 >= -1
 X195 >= 0
 -X196 >= -93896
 X196 >= 0
 -X197 >= -1
 X197 >= 0
 X197 - X195 >= 0
 -X197 + X200 >= 0
 -X197 + X199 >= 0
 -X198 >= -1
 X198 >= 0
 X198 - X204 >= 0
 -X198 + X203 >= 0
 -X198 + X202 >= 0
 X198 - X201 = 0
 -X199 >= -1
 X199 >= 0
 -X199 - X200 + X197 >= -1
 93898 X199 - X369 + X196 >= 1
 -93898 X199 + X369 - X196 >= -93898
 -X200 >= -1
 X200 >= 0
 93898 X200 + X369 - X196 >= 1
 -93898 X200 - X369 + X196 >= -93898
 -X201 >= -1
 X201 >= 0
 -X202 >= -1
 X202 >= 0
 -X202 - X203 + X198 >= -1
 93898 X202 - X196 >= 1
 -2 X202 + X196 >= -2
 -X203 >= -1
 X203 >= 0
 2 X203 + X196 >= 1
 -93898 X203 - X196 >= -93898
 -X204 >= -1
 X204 >= 0
 -X204 + X207 >= 0
 -X204 + X206 >= 0
 X204 - X205 = 0
 -X205 >= -1
 X205 >= 0
 -X206 >= -1
 X206 >= 0
 -X206 - X207 + X204 >= -1
 3 X206 - X195 >= 1
 -2 X206 + X195 >= -2
 -X207 >= -1
 X207 >= 0
 2 X207 + X195 >= 1
 -3 X207 - X195 >= -3
 -X208 >= -1
 X208 >= 0
 -X209 >= -93896
 X209 >= 0
 -X210 >= -1
 X210 >= 0
 X210 - X208 >= 0
 -X210 + X213 >= 0
 -X210 + X212 >= 0
 -X211 >= -1
 X211 >= 0
 X211 - X217 >= 0
 -X211 + X216 >= 0
 -X211 + X215 >= 0
 X211 - X214 = 0
 -X212 >= -1
 X212 >= 0
 -X212 - X213 + X210 >= -1
 93898 X212 - X369 + X209 >= 1
 -93898 X212 + X369 - X209 >= -93898
 -X213 >= -1
 X213 >= 0
 93898 X213 + X369 - X209 >= 1
 -93898 X213 - X369 + X209 >= -93898
 -X214 >= -1
 X214 >= 0
 -X215 >= -1
 X215 >= 0
 -X215 - X216 + X211 >= -1
 93898 X215 - X209 >= 1
 -2 X215 + X209 >= -2
 -X216 >= -1
 X216 >= 0
 2 X216 + X209 >= 1
 -93898 X216 - X209 >= -93898
 -X217 >= -1
 X217 >= 0
 -X217 + X220 >= 0
 -X217 + X219 >= 0
 X217 - X218 = 0
 -X218 >= -1
 X218 >= 0
 -X219 >= -1
 X219 >= 0
 -X219 - X220 + X217 >= -1
 3 X219 - X208 >= 1
 -2 X219 + X208 >= -2
 -X220 >= -1
 X220 >= 0
 2 X220 + X208 >= 1
 -3 X220 - X208 >= -3
 -X221 >= -1
 X221 >= 0
 -X222 >= -93896
 X222 >= 0
 -X223 >= -1
 X223 >= 0
 X223 - X221 >= 0
 -X223 + X226 >= 0
 -X223 + X225 >= 0
 -X224 >= -1
 X224 >= 0
 X224 - X230 >= 0
 -X224 + X229 >= 0
 -X224 + X228 >= 0
 X224 - X227 = 0
 -X225 >= -1
 X225 >= 0
 -X225 - X226 + X223 >= -1
 93898 X225 - X369 + X222 >= 1
 -93898 X225 + X369 - X222 >= -93898
 -X226 >= -1
 X226 >= 0
 93898 X226 + X369 - X222 >= 1
 -93898 X226 - X369 + X222 >= -93898
 -X227 >= -1
 X227 >= 0
 -X228 >= -1
 X228 >= 0
 -X228 - X229 + X224 >= -1
 93898 X228 - X222 >= 1
 -2 X228 + X222 >= -2
 -X229 >= -1
 X229 >= 0
 2 X229 + X222 >= 1
 -93898 X229 - X222 >= -93898
 -X230 >= -1
 X230 >= 0
 -X230 + X233 >= 0
 -X230 + X232 >= 0
 X230 - X231 = 0
 -X231 >= -1
 X231 >= 0
 -X232 >= -1
 X232 >= 0
 -X232 - X233 + X230 >= -1
 3 X232 - X221 >= 1
 -2 X232 + X221 >= -2
 -X233 >= -1
 X233 >= 0
 2 X233 + X221 >= 1
 -3 X233 - X221 >= -3
 -X234 >= -1
 X234 >= 0
 -X235 >= -194
 X235 >= 0
 -X236 >= -1
 X236 >= 0
 X236 - X234 >= 0
 -X236 + X239 >= 0
 -X236 + X238 >= 0
 -X237 >= -1
 X237 >= 0
 X237 - X243 >= 0
 -X237 + X242 >= 0
 -X237 + X241 >= 0
 X237 - X240 = 0
 -X238 >= -1
 X238 >= 0
 -X238 - X239 + X236 >= -1
 196 X238 - X373 + X235 >= 1
 -194 X238 + X373 - X235 >= -194
 -X239 >= -1
 X239 >= 0
 194 X239 + X373 - X235 >= 1
 -196 X239 - X373 + X235 >= -196
 -X240 >= -1
 X240 >= 0
 -X241 >= -1
 X241 >= 0
 -X241 - X242 + X237 >= -1
 196 X241 - X235 >= 1
 -2 X241 + X235 >= -2
 -X242 >= -1
 X242 >= 0
 2 X242 + X235 >= 1
 -196 X242 - X235 >= -196
 -X243 >= -1
 X243 >= 0
 -X243 + X246 >= 0
 -X243 + X245 >= 0
 X243 - X244 = 0
 -X244 >= -1
 X244 >= 0
 -X245 >= -1
 X245 >= 0
 -X245 - X246 + X243 >= -1
 3 X245 - X234 >= 1
 -2 X245 + X234 >= -2
 -X246 >= -1
 X246 >= 0
 2 X246 + X234 >= 1
 -3 X246 - X234 >= -3
 -X247 >= -1
 X247 >= 0
 -X248 >= -194
 X248 >= 0
 -X249 >= -1
 X249 >= 0
 X249 - X247 >= 0
 -X249 + X252 >= 0
 -X249 + X251 >= 0
 -X250 >= -1
 X250 >= 0
 X250 - X256 >= 0
 -X250 + X255 >= 0
 -X250 + X254 >= 0
 X250 - X253 = 0
 -X251 >= -1
 X251 >= 0
 -X251 - X252 + X249 >= -1
 196 X251 - X373 + X248 >= 1
 -194 X251 + X373 - X248 >= -194
 -X252 >= -1
 X252 >= 0
 194 X252 + X373 - X248 >= 1
 -196 X252 - X373 + X248 >= -196
 -X253 >= -1
 X253 >= 0
 -X254 >= -1
 X254 >= 0
 -X254 - X255 + X250 >= -1
 196 X254 - X248 >= 1
 -2 X254 + X248 >= -2
 -X255 >= -1
 X255 >= 0
 2 X255 + X248 >= 1
 -196 X255 - X248 >= -196
 -X256 >= -1
 X256 >= 0
 -X256 + X259 >= 0
 -X256 + X258 >= 0
 X256 - X257 = 0
 -X257 >= -1
 X257 >= 0
 -X258 >= -1
 X258 >= 0
 -X258 - X259 + X256 >= -1
 3 X258 - X247 >= 1
 -2 X258 + X247 >= -2
 -X259 >= -1
 X259 >= 0
 2 X259 + X247 >= 1
 -3 X259 - X247 >= -3
 -X260 >= -1
 X260 >= 0
 -X261 >= -194
 X261 >= 0
 -X262 >= -1
 X262 >= 0
 X262 - X260 >= 0
 -X262 + X265 >= 0
 -X262 + X264 >= 0
 -X263 >= -1
 X263 >= 0
 X263 - X269 >= 0
 -X263 + X268 >= 0
 -X263 + X267 >= 0
 X263 - X266 = 0
 -X264 >= -1
 X264 >= 0
 -X264 - X265 + X262 >= -1
 196 X264 - X373 + X261 >= 1
 -194 X264 + X373 - X261 >= -194
 -X265 >= -1
 X265 >= 0
 194 X265 + X373 - X261 >= 1
 -196 X265 - X373 + X261 >= -196
 -X266 >= -1
 X266 >= 0
 -X267 >= -1
 X267 >= 0
 -X267 - X268 + X263 >= -1
 196 X267 - X261 >= 1
 -2 X267 + X261 >= -2
 -X268 >= -1
 X268 >= 0
 2 X268 + X261 >= 1
 -196 X268 - X261 >= -196
 -X269 >= -1
 X269 >= 0
 -X269 + X272 >= 0
 -X269 + X271 >= 0
 X269 - X270 = 0
 -X270 >= -1
 X270 >= 0
 -X271 >= -1
 X271 >= 0
 -X271 - X272 + X269 >= -1
 3 X271 - X260 >= 1
 -2 X271 + X260 >= -2
 -X272 >= -1
 X272 >= 0
 2 X272 + X260 >= 1
 -3 X272 - X260 >= -3
 -X273 >= -1
 X273 >= 0
 -X274 >= -194
 X274 >= 0
 -X275 >= -1
 X275 >= 0
 X275 - X273 >= 0
 -X275 + X278 >= 0
 -X275 + X277 >= 0
 -X276 >= -1
 X276 >= 0
 X276 - X282 >= 0
 -X276 + X281 >= 0
 -X276 + X280 >= 0
 X276 - X279 = 0
 -X277 >= -1
 X277 >= 0
 -X277 - X278 + X275 >= -1
 196 X277 - X373 + X274 >= 1
 -194 X277 + X373 - X274 >= -194
 -X278 >= -1
 X278 >= 0
 194 X278 + X373 - X274 >= 1
 -196 X278 - X373 + X274 >= -196
 -X279 >= -1
 X279 >= 0
 -X280 >= -1
 X280 >= 0
 -X280 - X281 + X276 >= -1
 196 X280 - X274 >= 1
 -2 X280 + X274 >= -2
 -X281 >= -1
 X281 >= 0
 2 X281 + X274 >= 1
 -196 X281 - X274 >= -196
 -X282 >= -1
 X282 >= 0
 -X282 + X285 >= 0
 -X282 + X284 >= 0
 X282 - X283 = 0
 -X283 >= -1
 X283 >= 0
 -X284 >= -1
 X284 >= 0
 -X284 - X285 + X282 >= -1
 3 X284 - X273 >= 1
 -2 X284 + X273 >= -2
 -X285 >= -1
 X285 >= 0
 2 X285 + X273 >= 1
 -3 X285 - X273 >= -3
 -X286 >= -1
 X286 >= 0
 -X287 >= -194
 X287 >= 0
 -X288 >= -1
 X288 >= 0
 X288 - X286 >= 0
 -X288 + X291 >= 0
 -X288 + X290 >= 0
 -X289 >= -1
 X289 >= 0
 X289 - X295 >= 0
 -X289 + X294 >= 0
 -X289 + X293 >= 0
 X289 - X292 = 0
 -X290 >= -1
 X290 >= 0
 -X290 - X291 + X288 >= -1
 196 X290 - X373 + X287 >= 1
 -194 X290 + X373 - X287 >= -194
 -X291 >= -1
 X291 >= 0
 194 X291 + X373 - X287 >= 1
 -196 X291 - X373 + X287 >= -196
 -X292 >= -1
 X292 >= 0
 -X293 >= -1
 X293 >= 0
 -X293 - X294 + X289 >= -1
 196 X293 - X287 >= 1
 -2 X293 + X287 >= -2
 -X294 >= -1
 X294 >= 0
 2 X294 + X287 >= 1
 -196 X294 - X287 >= -196
 -X295 >= -1
 X295 >= 0
 -X295 + X298 >= 0
 -X295 + X297 >= 0
 X295 - X296 = 0
 -X296 >= -1
 X296 >= 0
 -X297 >= -1
 X297 >= 0
 -X297 - X298 + X295 >= -1
 3 X297 - X286 >= 1
 -2 X297 + X286 >= -2
 -X298 >= -1
 X298 >= 0
 2 X298 + X286 >= 1
 -3 X298 - X286 >= -3
 -X299 >= -1
 X299 >= 0
 -X300 >= -194
 X300 >= 0
 -X301 >= -1
 X301 >= 0
 X301 - X299 >= 0
 -X301 + X304 >= 0
 -X301 + X303 >= 0
 -X302 >= -1
 X302 >= 0
 X302 - X308 >= 0
 -X302 + X307 >= 0
 -X302 + X306 >= 0
 X302 - X305 = 0
 -X303 >= -1
 X303 >= 0
 -X303 - X304 + X301 >= -1
 196 X303 - X373 + X300 >= 1
 -194 X303 + X373 - X300 >= -194
 -X304 >= -1
 X304 >= 0
 194 X304 + X373 - X300 >= 1
 -196 X304 - X373 + X300 >= -196
 -X305 >= -1
 X305 >= 0
 -X306 >= -1
 X306 >= 0
 -X306 - X307 + X302 >= -1
 196 X306 - X300 >= 1
 -2 X306 + X300 >= -2
 -X307 >= -1
 X307 >= 0
 2 X307 + X300 >= 1
 -196 X307 - X300 >= -196
 -X308 >= -1
 X308 >= 0
 -X308 + X311 >= 0
 -X308 + X310 >= 0
 X308 - X309 = 0
 -X309 >= -1
 X309 >= 0
 -X310 >= -1
 X310 >= 0
 -X310 - X311 + X308 >= -1
 3 X310 - X299 >= 1
 -2 X310 + X299 >= -2
 -X311 >= -1
 X311 >= 0
 2 X311 + X299 >= 1
 -3 X311 - X299 >= -3
 -X312 >= -1
 X312 >= 0
 -X313 >= -194
 X313 >= 0
 -X314 >= -1
 X314 >= 0
 X314 - X312 >= 0
 -X314 + X317 >= 0
 -X314 + X316 >= 0
 -X315 >= -1
 X315 >= 0
 X315 - X321 >= 0
 -X315 + X320 >= 0
 -X315 + X319 >= 0
 X315 - X318 = 0
 -X316 >= -1
 X316 >= 0
 -X316 - X317 + X314 >= -1
 196 X316 - X373 + X313 >= 1
 -194 X316 + X373 - X313 >= -194
 -X317 >= -1
 X317 >= 0
 194 X317 + X373 - X313 >= 1
 -196 X317 - X373 + X313 >= -196
 -X318 >= -1
 X318 >= 0
 -X319 >= -1
 X319 >= 0
 -X319 - X320 + X315 >= -1
 196 X319 - X313 >= 1
 -2 X319 + X313 >= -2
 -X320 >= -1
 X320 >= 0
 2 X320 + X313 >= 1
 -196 X320 - X313 >= -196
 -X321 >= -1
 X321 >= 0
 -X321 + X324 >= 0
 -X321 + X323 >= 0
 X321 - X322 = 0
 -X322 >= -1
 X322 >= 0
 -X323 >= -1
 X323 >= 0
 -X323 - X324 + X321 >= -1
 3 X323 - X312 >= 1
 -2 X323 + X312 >= -2
 -X324 >= -1
 X324 >= 0
 2 X324 + X312 >= 1
 -3 X324 - X312 >= -3
 -X325 >= -1
 X325 >= 0
 -X326 >= -194
 X326 >= 0
 -X327 >= -1
 X327 >= 0
 X327 - X325 >= 0
 -X327 + X330 >= 0
 -X327 + X329 >= 0
 -X328 >= -1
 X328 >= 0
 X328 - X334 >= 0
 -X328 + X333 >= 0
 -X328 + X332 >= 0
 X328 - X331 = 0
 -X329 >= -1
 X329 >= 0
 -X329 - X330 + X327 >= -1
 196 X329 - X373 + X326 >= 1
 -194 X329 + X373 - X326 >= -194
 -X330 >= -1
 X330 >= 0
 194 X330 + X373 - X326 >= 1
 -196 X330 - X373 + X326 >= -196
 -X331 >= -1
 X331 >= 0
 -X332 >= -1
 X332 >= 0
 -X332 - X333 + X328 >= -1
 196 X332 - X326 >= 1
 -2 X332 + X326 >= -2
 -X333 >= -1
 X333 >= 0
 2 X333 + X326 >= 1
 -196 X333 - X326 >= -196
 -X334 >= -1
 X334 >= 0
 -X334 + X337 >= 0
 -X334 + X336 >= 0
 X334 - X335 = 0
 -X335 >= -1
 X335 >= 0
 -X336 >= -1
 X336 >= 0
 -X336 - X337 + X334 >= -1
 3 X336 - X325 >= 1
 -2 X336 + X325 >= -2
 -X337 >= -1
 X337 >= 0
 2 X337 + X325 >= 1
 -3 X337 - X325 >= -3
 -X338 >= -1
 X338 >= 0
 -X339 >= -194
 X339 >= 0
 -X340 >= -1
 X340 >= 0
 X340 - X338 >= 0
 -X340 + X343 >= 0
 -X340 + X342 >= 0
 -X341 >= -1
 X341 >= 0
 X341 - X347 >= 0
 -X341 + X346 >= 0
 -X341 + X345 >= 0
 X341 - X344 = 0
 -X342 >= -1
 X342 >= 0
 -X342 - X343 + X340 >= -1
 196 X342 - X373 + X339 >= 1
 -194 X342 + X373 - X339 >= -194
 -X343 >= -1
 X343 >= 0
 194 X343 + X373 - X339 >= 1
 -196 X343 - X373 + X339 >= -196
 -X344 >= -1
 X344 >= 0
 -X345 >= -1
 X345 >= 0
 -X345 - X346 + X341 >= -1
 196 X345 - X339 >= 1
 -2 X345 + X339 >= -2
 -X346 >= -1
 X346 >= 0
 2 X346 + X339 >= 1
 -196 X346 - X339 >= -196
 -X347 >= -1
 X347 >= 0
 -X347 + X350 >= 0
 -X347 + X349 >= 0
 X347 - X348 = 0
 -X348 >= -1
 X348 >= 0
 -X349 >= -1
 X349 >= 0
 -X349 - X350 + X347 >= -1
 3 X349 - X338 >= 1
 -2 X349 + X338 >= -2
 -X350 >= -1
 X350 >= 0
 2 X350 + X338 >= 1
 -3 X350 - X338 >= -3
 -X351 >= -1
 X351 >= 0
 X351 + X352 >= 1
 -485 X351 - X367 >= -485
 -X352 >= -1
 X352 >= 0
 -577 X352 + X376 - X367 >= -577
 -X353 >= -1
 X353 >= 0
 X353 + X354 >= 1
 -481 X353 - X371 >= -481
 -X354 >= -1
 X354 >= 0
 -961 X354 + X377 - X371 >= -961
 -X355 >= -1
 X355 >= 0
 X355 + X356 >= 1
 -485 X355 - X375 >= -485
 -X356 >= -1
 X356 >= 0
 -577 X356 + X378 - X375 >= -577
 -X357 >= -1
 X357 >= 0
 X357 + X358 >= 1
 -195 X357 - X374 >= -195
 -X358 >= -1
 X358 >= 0
 -193 X358 - 0 X374 >= -193
 -X359 >= -72057594037927935
 X359 >= -72057594037927935
 -X359 + 256 X105 + 128 X92 + 64 X79 + 32 X66 + 16 X53 + 8 X40 + 4 X27 + 2 X14 + X1 = 0
 -X360 >= -97
 X360 >= 1
 -X361 >= -97
 X361 >= 1
 -X362 >= -97
 X362 >= 1
 -X363 >= -97
 X363 >= 1
 X363 + X362 + X361 + X360 = 100
 -X364 >= -484
 X364 >= 0
 -X364 + X367 = 0
 -X364 + 256 X104 + 128 X91 + 64 X78 + 32 X65 + 16 X52 + 8 X39 + 4 X26 + 2 X13 + X0 = 0
 -X365 >= -45070080
 X365 >= 0
 -X365 + X366 = 0
 -X366 >= -45070080
 X366 >= 0
 -X366 + 256 X222 + 128 X209 + 64 X196 + 32 X183 + 16 X170 + 8 X157 + 4 X144 + 2 X131 + X118 = 0
 -X367 >= -484
 X367 >= 0
 X367 - X376 >= 0
 X367 >= 0
 -X368 >= -480
 X368 >= 0
 -X368 + X371 = 0
 -X368 + 256 X221 + 128 X208 + 64 X195 + 32 X182 + 16 X169 + 8 X156 + 4 X143 + 2 X130 + X117 = 0
 -X369 >= -93896
 X369 >= 0
 -X369 + X370 = 0
 -X370 >= -93896
 X370 >= 0
 -X370 + 256 X339 + 128 X326 + 64 X313 + 32 X300 + 16 X287 + 8 X274 + 4 X261 + 2 X248 + X235 = 0
 -X371 >= -480
 X371 >= 0
 X371 - X377 >= 0
 X371 >= 0
 -X372 >= -484
 X372 >= 0
 -X372 + X375 = 0
 -X372 + 256 X338 + 128 X325 + 64 X312 + 32 X299 + 16 X286 + 8 X273 + 4 X260 + 2 X247 + X234 = 0
 -X373 >= -194
 X373 >= 2
 -X373 + X374 = 0
 -X374 >= -194
 X374 >= 2
 -X374 + 2 X360 = 0
 0 X374 >= 0
 X374 >= 0
 -X375 >= -484
 X375 >= 0
 X375 - X378 >= 0
 X375 >= 0
 -X376 >= -484
 X376 >= -92
 -X376 - X362 + 5 X363 = 0
 -X377 >= -480
 X377 >= -480
 -X377 - 2 X360 - 3 X361 + 5 X362 = 0
 -X378 >= -484
 X378 >= -92
 -X378 - X363 + 5 X361 = 0
Bounds
 0 <= X0 <= 1
 0 <= X1 <= 45070080
 0 <= X2 <= 1
 0 <= X3 <= 1
 0 <= X4 <= 1
 0 <= X5 <= 1
 0 <= X6 <= 1
 0 <= X7 <= 1
 0 <= X8 <= 1
 0 <= X9 <= 1
 0 <= X10 <= 1
 0 <= X11 <= 1
 0 <= X12 <= 1
 0 <= X13 <= 1
 0 <= X14 <= 45070080
 0 <= X15 <= 1
 0 <= X16 <= 1
 0 <= X17 <= 1
 0 <= X18 <= 1
 0 <= X19 <= 1
 0 <= X20 <= 1
 0 <= X21 <= 1
 0 <= X22 <= 1
 0 <= X23 <= 1
 0 <= X24 <= 1
 0 <= X25 <= 1
 0 <= X26 <= 1
 0 <= X27 <= 45070080
 0 <= X28 <= 1
 0 <= X29 <= 1
 0 <= X30 <= 1
 0 <= X31 <= 1
 0 <= X32 <= 1
 0 <= X33 <= 1
 0 <= X34 <= 1
 0 <= X35 <= 1
 0 <= X36 <= 1
 0 <= X37 <= 1
 0 <= X38 <= 1
 0 <= X39 <= 1
 0 <= X40 <= 45070080
 0 <= X41 <= 1
 0 <= X42 <= 1
 0 <= X43 <= 1
 0 <= X44 <= 1
 0 <= X45 <= 1
 0 <= X46 <= 1
 0 <= X47 <= 1
 0 <= X48 <= 1
 0 <= X49 <= 1
 0 <= X50 <= 1
 0 <= X51 <= 1
 0 <= X52 <= 1
 0 <= X53 <= 45070080
 0 <= X54 <= 1
 0 <= X55 <= 1
 0 <= X56 <= 1
 0 <= X57 <= 1
 0 <= X58 <= 1
 0 <= X59 <= 1
 0 <= X60 <= 1
 0 <= X61 <= 1
 0 <= X62 <= 1
 0 <= X63 <= 1
 0 <= X64 <= 1
 0 <= X65 <= 1
 0 <= X66 <= 45070080
 0 <= X67 <= 1
 0 <= X68 <= 1
 0 <= X69 <= 1
 0 <= X70 <= 1
 0 <= X71 <= 1
 0 <= X72 <= 1
 0 <= X73 <= 1
 0 <= X74 <= 1
 0 <= X75 <= 1
 0 <= X76 <= 1
 0 <= X77 <= 1
 0 <= X78 <= 1
 0 <= X79 <= 45070080
 0 <= X80 <= 1
 0 <= X81 <= 1
 0 <= X82 <= 1
 0 <= X83 <= 1
 0 <= X84 <= 1
 0 <= X85 <= 1
 0 <= X86 <= 1
 0 <= X87 <= 1
 0 <= X88 <= 1
 0 <= X89 <= 1
 0 <= X90 <= 1
 0 <= X91 <= 1
 0 <= X92 <= 45070080
 0 <= X93 <= 1
 0 <= X94 <= 1
 0 <= X95 <= 1
 0 <= X96 <= 1
 0 <= X97 <= 1
 0 <= X98 <= 1
 0 <= X99 <= 1
 0 <= X100 <= 1
 0 <= X101 <= 1
 0 <= X102 <= 1
 0 <= X103 <= 1
 0 <= X104 <= 1
 0 <= X105 <= 45070080
 0 <= X106 <= 1
 0 <= X107 <= 1
 0 <= X108 <= 1
 0 <= X109 <= 1
 0 <= X110 <= 1
 0 <= X111 <= 1
 0 <= X112 <= 1
 0 <= X113 <= 1
 0 <= X114 <= 1
 0 <= X115 <= 1
 0 <= X116 <= 1
 0 <= X117 <= 1
 0 <= X118 <= 93896
 0 <= X119 <= 1
 0 <= X120 <= 1
 0 <= X121 <= 1
 0 <= X122 <= 1
 0 <= X123 <= 1
 0 <= X124 <= 1
 0 <= X125 <= 1
 0 <= X126 <= 1
 0 <= X127 <= 1
 0 <= X128 <= 1
 0 <= X129 <= 1
 0 <= X130 <= 1
 0 <= X131 <= 93896
 0 <= X132 <= 1
 0 <= X133 <= 1
 0 <= X134 <= 1
 0 <= X135 <= 1
 0 <= X136 <= 1
 0 <= X137 <= 1
 0 <= X138 <= 1
 0 <= X139 <= 1
 0 <= X140 <= 1
 0 <= X141 <= 1
 0 <= X142 <= 1
 0 <= X143 <= 1
 0 <= X144 <= 93896
 0 <= X145 <= 1
 0 <= X146 <= 1
 0 <= X147 <= 1
 0 <= X148 <= 1
 0 <= X149 <= 1
 0 <= X150 <= 1
 0 <= X151 <= 1
 0 <= X152 <= 1
 0 <= X153 <= 1
 0 <= X154 <= 1
 0 <= X155 <= 1
 0 <= X156 <= 1
 0 <= X157 <= 93896
 0 <= X158 <= 1
 0 <= X159 <= 1
 0 <= X160 <= 1
 0 <= X161 <= 1
 0 <= X162 <= 1
 0 <= X163 <= 1
 0 <= X164 <= 1
 0 <= X165 <= 1
 0 <= X166 <= 1
 0 <= X167 <= 1
 0 <= X168 <= 1
 0 <= X169 <= 1
 0 <= X170 <= 93896
 0 <= X171 <= 1
 0 <= X172 <= 1
 0 <= X173 <= 1
 0 <= X174 <= 1
 0 <= X175 <= 1
 0 <= X176 <= 1
 0 <= X177 <= 1
 0 <= X178 <= 1
 0 <= X179 <= 1
 0 <= X180 <= 1
 0 <= X181 <= 1
 0 <= X182 <= 1
 0 <= X183 <= 93896
 0 <= X184 <= 1
 0 <= X185 <= 1
 0 <= X186 <= 1
 0 <= X187 <= 1
 0 <= X188 <= 1
 0 <= X189 <= 1
 0 <= X190 <= 1
 0 <= X191 <= 1
 0 <= X192 <= 1
 0 <= X193 <= 1
 0 <= X194 <= 1
 0 <= X195 <= 1
 0 <= X196 <= 93896
 0 <= X197 <= 1
 0 <= X198 <= 1
 0 <= X199 <= 1
 0 <= X200 <= 1
 0 <= X201 <= 1
 0 <= X202 <= 1
 0 <= X203 <= 1
 0 <= X204 <= 1
 0 <= X205 <= 1
 0 <= X206 <= 1
 0 <= X207 <= 1
 0 <= X208 <= 1
 0 <= X209 <= 93896
 0 <= X210 <= 1
 0 <= X211 <= 1
 0 <= X212 <= 1
 0 <= X213 <= 1
 0 <= X214 <= 1
 0 <= X215 <= 1
 0 <= X216 <= 1
 0 <= X217 <= 1
 0 <= X218 <= 1
 0 <= X219 <= 1
 0 <= X220 <= 1
 0 <= X221 <= 1
 0 <= X222 <= 93896
 0 <= X223 <= 1
 0 <= X224 <= 1
 0 <= X225 <= 1
 0 <= X226 <= 1
 0 <= X227 <= 1
 0 <= X228 <= 1
 0 <= X229 <= 1
 0 <= X230 <= 1
 0 <= X231 <= 1
 0 <= X232 <= 1
 0 <= X233 <= 1
 0 <= X234 <= 1
 0 <= X235 <= 194
 0 <= X236 <= 1
 0 <= X237 <= 1
 0 <= X238 <= 1
 0 <= X239 <= 1
 0 <= X240 <= 1
 0 <= X241 <= 1
 0 <= X242 <= 1
 0 <= X243 <= 1
 0 <= X244 <= 1
 0 <= X245 <= 1
 0 <= X246 <= 1
 0 <= X247 <= 1
 0 <= X248 <= 194
 0 <= X249 <= 1
 0 <= X250 <= 1
 0 <= X251 <= 1
 0 <= X252 <= 1
 0 <= X253 <= 1
 0 <= X254 <= 1
 0 <= X255 <= 1
 0 <= X256 <= 1
 0 <= X257 <= 1
 0 <= X258 <= 1
 0 <= X259 <= 1
 0 <= X260 <= 1
 0 <= X261 <= 194
 0 <= X262 <= 1
 0 <= X263 <= 1
 0 <= X264 <= 1
 0 <= X265 <= 1
 0 <= X266 <= 1
 0 <= X267 <= 1
 0 <= X268 <= 1
 0 <= X269 <= 1
 0 <= X270 <= 1
 0 <= X271 <= 1
 0 <= X272 <= 1
 0 <= X273 <= 1
 0 <= X274 <= 194
 0 <= X275 <= 1
 0 <= X276 <= 1
 0 <= X277 <= 1
 0 <= X278 <= 1
 0 <= X279 <= 1
 0 <= X280 <= 1
 0 <= X281 <= 1
 0 <= X282 <= 1
 0 <= X283 <= 1
 0 <= X284 <= 1
 0 <= X285 <= 1
 0 <= X286 <= 1
 0 <= X287 <= 194
 0 <= X288 <= 1
 0 <= X289 <= 1
 0 <= X290 <= 1
 0 <= X291 <= 1
 0 <= X292 <= 1
 0 <= X293 <= 1
 0 <= X294 <= 1
 0 <= X295 <= 1
 0 <= X296 <= 1
 0 <= X297 <= 1
 0 <= X298 <= 1
 0 <= X299 <= 1
 0 <= X300 <= 194
 0 <= X301 <= 1
 0 <= X302 <= 1
 0 <= X303 <= 1
 0 <= X304 <= 1
 0 <= X305 <= 1
 0 <= X306 <= 1
 0 <= X307 <= 1
 0 <= X308 <= 1
 0 <= X309 <= 1
 0 <= X310 <= 1
 0 <= X311 <= 1
 0 <= X312 <= 1
 0 <= X313 <= 194
 0 <= X314 <= 1
 0 <= X315 <= 1
 0 <= X316 <= 1
 0 <= X317 <= 1
 0 <= X318 <= 1
 0 <= X319 <= 1
 0 <= X320 <= 1
 0 <= X321 <= 1
 0 <= X322 <= 1
 0 <= X323 <= 1
 0 <= X324 <= 1
 0 <= X325 <= 1
 0 <= X326 <= 194
 0 <= X327 <= 1
 0 <= X328 <= 1
 0 <= X329 <= 1
 0 <= X330 <= 1
 0 <= X331 <= 1
 0 <= X332 <= 1
 0 <= X333 <= 1
 0 <= X334 <= 1
 0 <= X335 <= 1
 0 <= X336 <= 1
 0 <= X337 <= 1
 0 <= X338 <= 1
 0 <= X339 <= 194
 0 <= X340 <= 1
 0 <= X341 <= 1
 0 <= X342 <= 1
 0 <= X343 <= 1
 0 <= X344 <= 1
 0 <= X345 <= 1
 0 <= X346 <= 1
 0 <= X347 <= 1
 0 <= X348 <= 1
 0 <= X349 <= 1
 0 <= X350 <= 1
 0 <= X351 <= 1
 0 <= X352 <= 1
 0 <= X353 <= 1
 0 <= X354 <= 1
 0 <= X355 <= 1
 0 <= X356 <= 1
 0 <= X357 <= 1
 0 <= X358 <= 1
 -72057594037927935 <= X359 <= 72057594037927935
 1 <= X360 <= 97
 1 <= X361 <= 97
 1 <= X362 <= 97
 1 <= X363 <= 97
 0 <= X364 <= 484
 0 <= X365 <= 45070080
 0 <= X366 <= 45070080
 0 <= X367 <= 484
 0 <= X368 <= 480
 0 <= X369 <= 93896
 0 <= X370 <= 93896
 0 <= X371 <= 480
 0 <= X372 <= 484
 2 <= X373 <= 194
 2 <= X374 <= 194
 0 <= X375 <= 484
 -92 <= X376 <= 484
 -480 <= X377 <= 480
 -92 <= X378 <= 484
Integers
 X0
 X1
 X2
 X3
 X4
 X5
 X6
 X7
 X8
 X9
 X10
 X11
 X12
 X13
 X14
 X15
 X16
 X17
 X18
 X19
 X20
 X21
 X22
 X23
 X24
 X25
 X26
 X27
 X28
 X29
 X30
 X31
 X32
 X33
 X34
 X35
 X36
 X37
 X38
 X39
 X40
 X41
 X42
 X43
 X44
 X45
 X46
 X47
 X48
 X49
 X50
 X51
 X52
 X53
 X54
 X55
 X56
 X57
 X58
 X59
 X60
 X61
 X62
 X63
 X64
 X65
 X66
 X67
 X68
 X69
 X70
 X71
 X72
 X73
 X74
 X75
 X76
 X77
 X78
 X79
 X80
 X81
 X82
 X83
 X84
 X85
 X86
 X87
 X88
 X89
 X90
 X91
 X92
 X93
 X94
 X95
 X96
 X97
 X98
 X99
 X100
 X101
 X102
 X103
 X104
 X105
 X106
 X107
 X108
 X109
 X110
 X111
 X112
 X113
 X114
 X115
 X116
 X117
 X118
 X119
 X120
 X121
 X122
 X123
 X124
 X125
 X126
 X127
 X128
 X129
 X130
 X131
 X132
 X133
 X134
 X135
 X136
 X137
 X138
 X139
 X140
 X141
 X142
 X143
 X144
 X145
 X146
 X147
 X148
 X149
 X150
 X151
 X152
 X153
 X154
 X155
 X156
 X157
 X158
 X159
 X160
 X161
 X162
 X163
 X164
 X165
 X166
 X167
 X168
 X169
 X170
 X171
 X172
 X173
 X174
 X175
 X176
 X177
 X178
 X179
 X180
 X181
 X182
 X183
 X184
 X185
 X186
 X187
 X188
 X189
 X190
 X191
 X192
 X193
 X194
 X195
 X196
 X197
 X198
 X199
 X200
 X201
 X202
 X203
 X204
 X205
 X206
 X207
 X208
 X209
 X210
 X211
 X212
 X213
 X214
 X215
 X216
 X217
 X218
 X219
 X220
 X221
 X222
 X223
 X224
 X225
 X226
 X227
 X228
 X229
 X230
 X231
 X232
 X233
 X234
 X235
 X236
 X237
 X238
 X239
 X240
 X241
 X242
 X243
 X244
 X245
 X246
 X247
 X248
 X249
 X250
 X251
 X252
 X253
 X254
 X255
 X256
 X257
 X258
 X259
 X260
 X261
 X262
 X263
 X264
 X265
 X266
 X267
 X268
 X269
 X270
 X271
 X272
 X273
 X274
 X275
 X276
 X277
 X278
 X279
 X280
 X281
 X282
 X283
 X284
 X285
 X286
 X287
 X288
 X289
 X290
 X291
 X292
 X293
 X294
 X295
 X296
 X297
 X298
 X299
 X300
 X301
 X302
 X303
 X304
 X305
 X306
 X307
 X308
 X309
 X310
 X311
 X312
 X313
 X314
 X315
 X316
 X317
 X318
 X319
 X320
 X321
 X322
 X323
 X324
 X325
 X326
 X327
 X328
 X329
 X330
 X331
 X332
 X333
 X334
 X335
 X336
 X337
 X338
 X339
 X340
 X341
 X342
 X343
 X344
 X345
 X346
 X347
 X348
 X349
 X350
 X351
 X352
 X353
 X354
 X355
 X356
 X357
 X358
 X359
 X360
 X361
 X362
 X363
 X364
 X365
 X366
 X367
 X368
 X369
 X370
 X371
 X372
 X373
 X374
 X375
 X376
 X377
 X378
End
